p cnf 701
-10 -220
-11 -223
-12 -226
-13 -229
-14 -232
-15 -235
-16 -238
-17 -241
-18 -244
-19 245
-20 246
-21 247
-22 248
-23 249
-24 250
-25 251
-26 -11
-26 -12
11 12 26
-27 -13
-27 -14
13 14 27
-28 -15
-28 -16
15 16 28
-29 -17
-29 -18
17 18 29
-30 -19
-30 -20
19 20 30
-31 -21
-31 -22
21 22 31
-32 -23
-32 -24
23 24 32
-33 26
-33 27
-26 -27 33
-34 28
-34 29
-28 -29 34
-35 30
-35 31
-30 -31 35
-36 -25
-36 32
25 -32 36
-37 33
-37 34
-33 -34 37
-38 35
-38 36
-35 -36 38
-39 37
-39 38
-37 -38 39
-40 -10
-40 11
10 -11 40
-41 10
-41 -11
-10 11 41
-42 -40
-42 -41
40 41 42
-43 10
-43 11
-10 -11 43
-44 -10
-44 -42
10 42 44
-45 10
-45 42
-10 -42 45
-46 -44
-46 -45
44 45 46
-47 10
-47 -42
-10 42 47
-48 -43
-48 -47
43 47 48
-49 -11
-49 12
11 -12 49
-50 11
-50 -12
-11 12 50
-51 -49
-51 -50
49 50 51
-52 11
-52 12
-11 -12 52
-53 48
-53 -51
-48 51 53
-54 -48
-54 51
48 -51 54
-55 -53
-55 -54
53 54 55
-56 -48
-56 -51
48 51 56
-57 -52
-57 -56
52 56 57
-58 -12
-58 13
12 -13 58
-59 12
-59 -13
-12 13 59
-60 -58
-60 -59
58 59 60
-61 12
-61 13
-12 -13 61
-62 57
-62 -60
-57 60 62
-63 -57
-63 60
57 -60 63
-64 -62
-64 -63
62 63 64
-65 -57
-65 -60
57 60 65
-66 -61
-66 -65
61 65 66
-67 -13
-67 14
13 -14 67
-68 13
-68 -14
-13 14 68
-69 -67
-69 -68
67 68 69
-70 13
-70 14
-13 -14 70
-71 66
-71 -69
-66 69 71
-72 -66
-72 69
66 -69 72
-73 -71
-73 -72
71 72 73
-74 -66
-74 -69
66 69 74
-75 -70
-75 -74
70 74 75
-76 -14
-76 15
14 -15 76
-77 14
-77 -15
-14 15 77
-78 -76
-78 -77
76 77 78
-79 14
-79 15
-14 -15 79
-80 75
-80 -78
-75 78 80
-81 -75
-81 78
75 -78 81
-82 -80
-82 -81
80 81 82
-83 -75
-83 -78
75 78 83
-84 -79
-84 -83
79 83 84
-85 -15
-85 16
15 -16 85
-86 15
-86 -16
-15 16 86
-87 -85
-87 -86
85 86 87
-88 15
-88 16
-15 -16 88
-89 84
-89 -87
-84 87 89
-90 -84
-90 87
84 -87 90
-91 -89
-91 -90
89 90 91
-92 -84
-92 -87
84 87 92
-93 -88
-93 -92
88 92 93
-94 -16
-94 17
16 -17 94
-95 16
-95 -17
-16 17 95
-96 -94
-96 -95
94 95 96
-97 16
-97 17
-16 -17 97
-98 93
-98 -96
-93 96 98
-99 -93
-99 96
93 -96 99
-100 -98
-100 -99
98 99 100
-101 -93
-101 -96
93 96 101
-102 -97
-102 -101
97 101 102
-103 -17
-103 18
17 -18 103
-104 17
-104 -18
-17 18 104
-105 -103
-105 -104
103 104 105
-106 17
-106 18
-17 -18 106
-107 102
-107 -105
-102 105 107
-108 -102
-108 105
102 -105 108
-109 -107
-109 -108
107 108 109
-110 -102
-110 -105
102 105 110
-111 -106
-111 -110
106 110 111
-112 -18
-112 19
18 -19 112
-113 18
-113 -19
-18 19 113
-114 -112
-114 -113
112 113 114
-115 18
-115 19
-18 -19 115
-116 111
-116 -114
-111 114 116
-117 -111
-117 114
111 -114 117
-118 -116
-118 -117
116 117 118
-119 -111
-119 -114
111 114 119
-120 -115
-120 -119
115 119 120
-121 -19
-121 20
19 -20 121
-122 19
-122 -20
-19 20 122
-123 -121
-123 -122
121 122 123
-124 19
-124 20
-19 -20 124
-125 120
-125 -123
-120 123 125
-126 -120
-126 123
120 -123 126
-127 -125
-127 -126
125 126 127
-128 -120
-128 -123
120 123 128
-129 -124
-129 -128
124 128 129
-130 -20
-130 21
20 -21 130
-131 20
-131 -21
-20 21 131
-132 -130
-132 -131
130 131 132
-133 20
-133 21
-20 -21 133
-134 129
-134 -132
-129 132 134
-135 -129
-135 132
129 -132 135
-136 -134
-136 -135
134 135 136
-137 -129
-137 -132
129 132 137
-138 -133
-138 -137
133 137 138
-139 -21
-139 22
21 -22 139
-140 21
-140 -22
-21 22 140
-141 -139
-141 -140
139 140 141
-142 21
-142 22
-21 -22 142
-143 138
-143 -141
-138 141 143
-144 -138
-144 141
138 -141 144
-145 -143
-145 -144
143 144 145
-146 -138
-146 -141
138 141 146
-147 -142
-147 -146
142 146 147
-148 -22
-148 23
22 -23 148
-149 22
-149 -23
-22 23 149
-150 -148
-150 -149
148 149 150
-151 22
-151 23
-22 -23 151
-152 147
-152 -150
-147 150 152
-153 -147
-153 150
147 -150 153
-154 -152
-154 -153
152 153 154
-155 -147
-155 -150
147 150 155
-156 -151
-156 -155
151 155 156
-157 -23
-157 24
23 -24 157
-158 23
-158 -24
-23 24 158
-159 -157
-159 -158
157 158 159
-160 23
-160 24
-23 -24 160
-161 156
-161 -159
-156 159 161
-162 -156
-162 159
156 -159 162
-163 -161
-163 -162
161 162 163
-164 -156
-164 -159
156 159 164
-165 -160
-165 -164
160 164 165
-166 -24
-166 25
24 -25 166
-167 24
-167 -25
-24 25 167
-168 -166
-168 -167
166 167 168
-169 24
-169 25
-24 -25 169
-170 165
-170 -168
-165 168 170
-171 -165
-171 168
165 -168 171
-172 -170
-172 -171
170 171 172
-173 -165
-173 -168
165 168 173
-174 -169
-174 -173
169 173 174
-175 10
-175 -46
-10 46 175
-176 -10
-176 12
10 -12 176
-177 -175
-177 -176
175 176 177
-178 10
-178 -55
-10 55 178
-179 -10
-179 13
10 -13 179
-180 -178
-180 -179
178 179 180
-181 10
-181 -64
-10 64 181
-182 -10
-182 14
10 -14 182
-183 -181
-183 -182
181 182 183
-184 10
-184 -73
-10 73 184
-185 -10
-185 15
10 -15 185
-186 -184
-186 -185
184 185 186
-187 10
-187 -82
-10 82 187
-188 -10
-188 16
10 -16 188
-189 -187
-189 -188
187 188 189
-190 10
-190 -91
-10 91 190
-191 -10
-191 17
10 -17 191
-192 -190
-192 -191
190 191 192
-193 10
-193 -100
-10 100 193
-194 -10
-194 18
10 -18 194
-195 -193
-195 -194
193 194 195
-196 10
-196 -109
-10 109 196
-197 -10
-197 19
10 -19 197
-198 -196
-198 -197
196 197 198
-199 10
-199 -118
-10 118 199
-200 -10
-200 20
10 -20 200
-201 -199
-201 -200
199 200 201
-202 10
-202 -127
-10 127 202
-203 -10
-203 21
10 -21 203
-204 -202
-204 -203
202 203 204
-205 10
-205 -136
-10 136 205
-206 -10
-206 22
10 -22 206
-207 -205
-207 -206
205 206 207
-208 10
-208 -145
-10 145 208
-209 -10
-209 23
10 -23 209
-210 -208
-210 -209
208 209 210
-211 10
-211 -154
-10 154 211
-212 -10
-212 24
10 -24 212
-213 -211
-213 -212
211 212 213
-214 10
-214 -163
-10 163 214
-215 -10
-215 25
10 -25 215
-216 -214
-216 -215
214 215 216
-217 10
-217 -172
-10 172 217
-218 1
-218 39
-1 -39 218
-219 -39
-219 40
39 -40 219
-220 -218
-220 -219
218 219 220
-221 2
-221 39
-2 -39 221
-222 -39
-222 -177
39 177 222
-223 -221
-223 -222
221 222 223
-224 3
-224 39
-3 -39 224
-225 -39
-225 -180
39 180 225
-226 -224
-226 -225
224 225 226
-227 4
-227 39
-4 -39 227
-228 -39
-228 -183
39 183 228
-229 -227
-229 -228
227 228 229
-230 5
-230 39
-5 -39 230
-231 -39
-231 -186
39 186 231
-232 -230
-232 -231
230 231 232
-233 6
-233 39
-6 -39 233
-234 -39
-234 -189
39 189 234
-235 -233
-235 -234
233 234 235
-236 7
-236 39
-7 -39 236
-237 -39
-237 -192
39 192 237
-238 -236
-238 -237
236 237 238
-239 8
-239 39
-8 -39 239
-240 -39
-240 -195
39 195 240
-241 -239
-241 -240
239 240 241
-242 9
-242 39
-9 -39 242
-243 -39
-243 -198
39 198 243
-244 -242
-244 -243
242 243 244
-245 -39
-245 -201
39 201 245
-246 -39
-246 -204
39 204 246
-247 -39
-247 -207
39 207 247
-248 -39
-248 -210
39 210 248
-249 -39
-249 -213
39 213 249
-250 -39
-250 -216
39 216 250
-251 -39
-251 217
39 -217 251
-252 -25
-252 174
25 -174 252
-253 10
-253 -252
-10 252 253
253
